%%MatrixMarket matrix coordinate real general
% written by sprs
139 60 3009
1 1 5
1 2 5
1 3 9
1 4 6
1 5 8
1 6 4
1 7 1
1 8 7
1 10 3
1 11 12
1 12 4
1 13 2
1 14 8
1 15 1
1 16 2
1 17 7
1 19 22
1 21 3
1 22 5
1 23 34
1 24 4
1 25 7
1 26 4
1 27 3
1 28 2
1 31 10
1 32 6
1 33 9
1 34 4
1 35 3
1 37 4
1 38 5
1 39 13
1 41 1
1 42 3
1 44 2
1 47 1
1 51 9
1 55 6
1 57 1
1 59 1
2 1 3
2 2 2
2 3 1
2 5 3
2 6 1
2 7 2
2 10 3
2 11 1
2 12 1
2 13 1
2 14 1
2 16 1
2 17 5
2 18 1
2 22 3
2 25 5
2 26 6
2 27 2
2 33 1
2 34 3
2 36 1
2 37 9
2 42 2
2 46 1
2 56 1
3 1 2
3 2 3
3 3 1
3 5 8
3 6 1
3 7 6
3 8 3
3 9 35
3 10 2
3 12 1
3 13 1
3 15 2
3 16 8
3 18 6
3 19 1
3 21 1
3 22 2
3 23 2
3 25 4
3 26 1
3 27 4
3 28 11
3 32 2
3 33 3
3 34 4
3 35 2
3 36 9
3 38 2
3 39 3
3 46 1
3 47 5
3 56 1
4 1 3
4 4 1
4 8 2
4 11 4
4 13 2
4 17 2
4 19 3
4 23 4
4 24 1
4 25 1
4 33 1
4 34 1
4 46 1
4 47 1
4 51 3
5 3 1
5 8 1
5 10 1
5 16 1
5 17 2
5 19 5
5 21 4
5 23 5
5 24 3
5 27 4
5 28 3
5 30 3
5 31 1
5 33 4
5 35 1
5 37 4
5 38 2
5 39 3
5 44 2
5 48 2
5 51 2
5 58 1
6 1 4
6 2 2
6 3 1
6 4 26
6 5 3
6 6 2
6 7 2
6 8 3
6 9 3
6 10 1
6 11 1
6 12 2
6 15 3
6 16 1
6 17 1
6 18 8
6 19 2
6 22 1
6 23 1
6 24 3
6 34 5
6 35 1
6 36 1
6 38 1
6 42 2
6 44 6
6 47 2
6 51 1
6 55 4
6 56 2
7 10 1
7 17 3
7 25 4
7 26 10
7 29 4
7 34 3
7 35 1
7 37 2
7 38 8
7 39 1
8 10 1
8 17 1
8 19 4
8 21 3
8 22 4
8 23 5
8 25 2
8 26 2
8 27 1
8 28 4
8 30 1
8 31 14
8 32 2
8 33 9
8 34 2
8 35 2
8 37 3
8 38 2
8 39 9
8 41 1
8 51 2
8 55 1
8 59 3
9 1 4
9 2 5
9 4 2
9 5 2
9 6 5
9 8 3
9 10 6
9 11 3
9 12 1
9 13 7
9 14 1
9 15 5
9 16 3
9 17 1
9 18 1
9 19 4
9 22 1
9 23 3
9 24 11
9 26 3
9 28 1
9 31 1
9 32 2
9 33 1
9 34 3
9 37 5
9 39 2
9 42 3
9 44 2
9 51 1
9 55 1
10 4 1
10 5 1
10 8 1
10 13 2
10 14 1
10 15 1
10 16 1
10 19 1
10 21 3
10 22 9
10 23 4
10 25 4
10 26 5
10 27 2
10 29 3
10 30 4
10 31 2
10 32 9
10 33 1
10 34 3
10 35 9
10 36 1
10 37 1
10 38 3
10 39 4
10 41 1
10 42 2
10 55 2
11 5 2
11 7 2
11 9 3
11 10 1
11 13 1
11 16 1
11 18 1
11 24 2
11 28 1
11 33 1
11 35 1
11 36 1
11 37 1
11 39 1
11 42 1
11 44 2
11 55 1
11 56 1
12 1 8
12 2 5
12 3 4
12 5 1
12 6 2
12 7 1
12 8 4
12 10 2
12 12 1
12 14 3
12 15 1
12 16 1
12 17 3
12 19 2
12 22 2
12 23 10
12 24 5
12 25 3
12 26 1
12 27 1
12 28 2
12 31 1
12 32 2
12 33 4
12 34 2
12 35 1
12 38 2
12 39 4
12 47 1
12 51 1
12 55 1
12 59 1
13 1 1
13 2 1
13 4 3
13 8 5
13 12 2
13 13 2
13 14 7
13 18 1
13 19 2
13 44 2
13 51 1
13 58 1
14 1 2
14 2 1
14 5 1
14 8 1
14 12 1
14 13 1
14 15 1
14 16 1
14 17 1
14 18 1
14 19 6
14 21 1
14 25 1
14 26 1
14 27 1
14 28 5
14 29 6
14 33 1
14 35 1
14 36 1
14 38 3
14 42 1
14 55 3
15 1 3
15 2 1
15 3 3
15 5 3
15 6 1
15 7 4
15 8 3
15 10 5
15 11 4
15 12 3
15 13 1
15 16 2
15 17 3
15 18 2
15 19 4
15 22 2
15 23 5
15 24 1
15 25 2
15 27 1
15 28 2
15 30 1
15 32 3
15 33 2
15 35 1
15 37 2
15 38 1
15 42 4
15 44 2
15 50 1
15 51 4
16 36 2
17 1 1
17 2 1
17 3 3
17 4 1
17 5 2
17 11 3
17 12 1
17 13 3
17 14 1
17 17 5
17 18 2
17 19 5
17 21 2
17 22 1
17 24 2
17 26 2
17 30 2
17 31 3
17 32 3
17 33 6
17 37 2
17 38 1
17 51 3
17 55 1
17 57 1
18 2 2
18 5 2
18 7 1
18 15 1
18 17 1
18 19 1
18 21 1
18 22 1
18 26 1
18 28 1
18 32 2
18 34 2
18 35 2
18 39 2
19 9 4
19 13 2
19 15 1
19 16 2
19 17 4
19 22 2
19 26 2
19 27 1
19 29 1
19 33 2
19 39 2
20 1 6
20 2 4
20 3 1
20 4 1
20 5 2
20 6 1
20 8 2
20 10 1
20 11 8
20 12 5
20 13 2
20 14 5
20 15 2
20 17 1
20 19 17
20 22 1
20 23 3
20 31 2
20 33 1
20 37 4
20 38 1
20 39 12
20 42 3
20 51 8
20 55 1
20 59 1
21 1 1
21 5 2
21 6 3
21 7 2
21 9 1
21 12 1
21 15 1
21 16 3
21 17 1
21 18 4
21 33 1
21 35 1
21 51 1
21 55 4
22 1 4
22 2 2
22 3 2
22 4 3
22 5 2
22 6 2
22 7 1
22 8 4
22 9 14
22 10 1
22 11 5
22 12 5
22 13 3
22 14 3
22 15 2
22 16 2
22 17 3
22 18 5
22 19 4
22 21 7
22 22 5
22 23 8
22 24 8
22 25 5
22 26 1
22 28 4
22 29 2
22 30 3
22 31 1
22 32 5
22 33 7
22 34 1
22 35 5
22 37 10
22 39 7
22 42 4
22 51 6
22 52 1
22 55 4
22 59 2
23 1 2
23 3 1
23 4 3
23 5 1
23 6 1
23 8 1
23 11 2
23 12 3
23 13 2
23 14 2
23 15 2
23 17 2
23 18 1
23 19 1
23 21 1
23 22 2
23 24 2
23 25 1
23 26 1
23 27 2
23 28 2
23 30 1
23 31 16
23 32 7
23 34 1
23 37 3
23 38 5
23 39 1
23 44 3
23 50 1
23 51 6
23 54 1
23 55 1
24 1 2
24 2 3
24 5 1
24 7 1
24 8 2
24 10 1
24 13 1
24 16 1
24 18 1
24 19 1
24 22 3
24 23 2
24 26 4
24 27 1
24 28 5
24 30 1
24 32 2
24 33 4
24 35 1
24 36 2
24 39 1
24 47 1
24 55 1
25 4 5
25 5 1
25 8 1
25 9 1
25 19 1
25 24 2
25 25 1
25 44 7
25 55 1
26 3 1
26 8 1
26 10 1
26 12 1
26 19 3
26 21 1
26 22 1
26 24 11
26 26 1
26 28 15
26 30 3
26 31 1
26 37 1
26 39 2
26 44 1
26 55 1
26 59 1
27 1 14
27 2 6
27 3 2
27 4 2
27 5 1
27 6 3
27 7 5
27 8 7
27 10 2
27 11 7
27 12 2
27 13 10
27 14 2
27 15 2
27 16 1
27 17 9
27 18 2
27 19 13
27 23 1
27 29 1
27 33 1
27 37 5
27 38 1
27 39 1
27 42 10
27 44 2
27 47 1
27 51 9
27 53 1
27 54 1
27 57 4
28 1 2
28 2 2
28 5 1
28 7 2
28 9 1
28 12 1
28 13 1
28 15 1
28 16 5
28 17 1
28 18 1
28 22 2
28 27 1
28 28 3
28 30 1
28 34 2
28 36 1
28 39 2
28 42 1
28 47 3
28 55 1
28 56 1
29 17 1
29 21 4
29 22 3
29 23 2
29 28 9
29 29 3
29 32 2
29 33 6
29 35 1
29 37 1
29 38 2
29 39 1
29 48 1
29 55 1
29 57 1
30 2 1
30 3 1
30 7 1
30 8 3
30 11 2
30 13 1
30 14 1
30 19 1
30 27 1
30 28 2
30 33 1
30 42 1
31 1 1
31 3 1
31 13 1
31 14 1
32 1 6
32 2 3
32 3 2
32 4 1
32 5 3
32 6 5
32 7 4
32 8 3
32 10 1
32 11 2
32 12 6
32 13 2
32 15 3
32 16 2
32 17 5
32 18 2
32 19 1
32 22 2
32 24 1
32 26 10
32 27 1
32 28 1
32 30 5
32 32 1
32 33 1
32 34 5
32 35 4
32 37 4
32 38 2
32 39 4
32 42 2
32 44 2
32 47 1
32 51 2
32 55 2
32 58 2
33 1 2
33 2 1
33 5 1
33 7 3
33 11 4
33 12 1
33 13 1
33 15 1
33 19 6
33 47 1
33 51 2
34 9 1
34 15 1
34 16 1
35 1 1
35 6 1
35 7 3
35 8 3
35 12 3
35 15 2
35 25 2
35 26 1
35 27 4
35 34 1
35 37 2
35 38 2
36 5 1
36 7 1
36 9 2
36 10 1
36 15 1
36 16 3
36 17 1
36 22 1
36 26 2
36 29 1
36 35 1
36 36 1
36 37 1
36 38 2
36 41 1
36 55 1
37 1 3
37 2 3
37 3 2
37 4 1
37 5 2
37 6 1
37 7 2
37 8 5
37 10 2
37 11 5
37 12 1
37 13 1
37 14 5
37 15 6
37 16 1
37 17 3
37 18 1
37 19 8
37 22 1
37 24 1
37 25 1
37 27 3
37 28 1
37 33 2
37 35 2
37 38 1
37 39 2
37 42 1
37 47 1
37 51 2
37 55 5
37 59 2
38 2 1
38 7 2
38 15 1
38 18 1
39 1 3
39 2 3
39 3 1
39 4 5
39 5 2
39 6 3
39 7 1
39 8 7
39 10 3
39 11 1
39 12 4
39 13 5
39 14 6
39 15 3
39 17 4
39 18 1
39 19 6
39 21 2
39 22 1
39 23 4
39 24 2
39 25 2
39 26 1
39 30 5
39 31 12
39 32 3
39 33 5
39 34 1
39 37 2
39 38 2
39 39 2
39 42 5
39 44 1
39 47 1
39 50 1
39 51 4
39 55 2
40 11 1
40 14 1
40 19 1
40 26 1
40 30 1
40 32 1
40 34 1
40 39 1
40 54 1
40 59 1
41 1 2
41 2 1
41 3 4
41 4 9
41 5 5
41 8 4
41 10 1
41 12 8
41 13 1
41 15 1
41 19 4
41 21 3
41 22 3
41 23 7
41 24 2
41 26 1
41 28 1
41 31 7
41 32 7
41 33 10
41 34 2
41 35 1
41 37 2
41 38 1
41 42 4
41 44 2
41 47 1
41 51 4
41 54 1
41 55 1
42 1 2
42 2 2
42 3 2
42 6 5
42 8 4
42 9 1
42 12 3
42 13 3
42 16 7
42 17 4
42 18 9
42 19 4
42 21 2
42 26 6
42 29 4
42 34 2
42 35 2
42 36 5
42 38 6
42 42 1
42 51 1
43 2 2
43 5 2
43 11 1
43 13 1
43 15 1
44 1 6
44 2 6
44 3 2
44 5 7
44 6 3
44 7 2
44 8 3
44 11 1
44 12 2
44 13 5
44 15 6
44 17 3
44 18 1
44 19 3
44 21 3
44 22 5
44 23 5
44 25 1
44 26 10
44 27 5
44 31 1
44 32 2
44 33 5
44 34 2
44 35 2
44 36 1
44 37 7
44 38 2
44 39 1
44 42 3
44 43 1
44 45 1
44 47 1
44 51 1
44 55 2
44 57 3
45 2 1
45 5 2
45 6 1
45 8 3
45 13 1
45 14 2
45 15 1
45 21 1
45 22 2
45 23 1
45 24 12
45 25 1
45 30 5
45 31 4
45 33 1
45 34 1
45 38 1
45 39 2
45 42 1
45 54 1
45 58 1
46 2 1
46 9 1
46 12 2
46 16 1
46 17 1
46 21 5
46 22 2
46 25 1
46 26 3
46 32 1
46 38 2
46 45 1
46 50 1
47 1 2
47 2 2
47 11 3
47 15 2
47 42 4
48 5 3
48 8 6
48 18 1
48 25 2
48 26 1
48 32 2
48 37 1
48 56 1
49 2 2
49 5 1
49 9 2
49 10 1
49 12 1
49 13 1
49 16 2
49 17 3
49 19 2
49 21 2
49 22 6
49 23 1
49 25 1
49 26 2
49 28 3
49 30 1
49 32 1
49 33 1
49 34 3
49 35 2
49 37 2
49 38 1
49 55 2
50 1 13
50 2 3
50 3 9
50 4 10
50 5 9
50 6 2
50 7 2
50 8 5
50 10 5
50 11 7
50 12 5
50 13 10
50 14 7
50 15 2
50 16 1
50 17 8
50 18 2
50 19 13
50 21 4
50 22 3
50 23 18
50 24 6
50 25 2
50 26 4
50 27 9
50 28 8
50 29 1
50 30 6
50 31 11
50 32 8
50 33 11
50 34 2
50 35 3
50 36 1
50 37 3
50 38 1
50 39 5
50 41 1
50 42 1
50 43 1
50 44 4
50 47 2
50 48 1
50 50 1
50 51 17
50 55 6
50 57 3
50 59 1
51 5 6
51 6 1
51 7 2
51 9 1
51 15 1
51 16 4
51 18 3
51 21 1
51 22 1
51 23 3
51 26 1
51 28 1
51 33 1
51 36 2
51 37 1
51 42 1
51 47 1
51 54 1
52 1 4
52 2 8
52 5 5
52 6 4
52 7 5
52 8 6
52 10 2
52 12 5
52 13 1
52 15 2
52 17 1
52 18 5
52 19 2
52 21 3
52 22 9
52 25 4
52 27 2
52 28 5
52 30 1
52 32 4
52 33 2
52 34 2
52 35 1
52 37 7
52 38 3
52 39 1
52 42 5
52 47 6
52 48 1
52 50 1
52 55 8
53 1 8
53 2 3
53 3 2
53 4 3
53 6 1
53 7 2
53 9 1
53 11 1
53 12 4
53 13 4
53 14 1
53 15 1
53 17 10
53 18 2
53 19 14
53 21 2
53 24 1
53 25 1
53 26 1
53 28 1
53 30 1
53 31 2
53 33 4
53 34 4
53 37 2
53 39 1
53 42 1
53 51 4
53 53 1
53 54 1
53 55 1
53 57 2
54 1 7
54 2 2
54 3 6
54 4 3
54 6 3
54 7 3
54 8 12
54 10 2
54 11 3
54 12 3
54 13 4
54 14 6
54 17 5
54 18 3
54 19 9
54 21 6
54 23 2
54 27 2
54 28 1
54 29 1
54 31 3
54 32 3
54 33 1
54 34 3
54 37 13
54 38 1
54 39 3
54 42 3
54 44 1
54 47 2
54 51 2
54 55 1
54 57 1
54 59 3
55 3 1
55 4 4
55 6 2
55 8 6
55 10 1
55 11 1
55 13 3
55 15 2
55 16 2
55 17 1
55 18 2
55 21 5
55 22 3
55 23 2
55 24 2
55 27 1
55 29 1
55 30 5
55 31 1
55 32 2
55 33 2
55 35 5
55 37 5
55 38 1
55 39 1
55 47 1
55 48 1
55 55 1
55 59 1
56 1 1
56 7 1
56 10 1
56 14 1
56 16 1
56 17 1
56 19 1
57 1 1
57 2 3
57 5 2
57 6 2
57 7 1
57 8 1
57 9 2
57 12 1
57 13 1
57 15 1
57 16 2
57 18 1
57 19 1
57 34 1
57 47 1
57 55 2
57 56 1
58 1 3
58 2 2
58 4 13
58 5 4
58 7 2
58 8 2
58 9 8
58 11 1
58 12 1
58 13 1
58 16 5
58 17 1
58 18 3
58 21 2
58 22 2
58 24 5
58 25 1
58 26 2
58 28 7
58 29 12
58 30 1
58 32 3
58 33 3
58 34 1
58 35 1
58 36 1
58 39 2
58 42 3
58 44 12
58 47 2
58 50 1
58 54 1
58 55 3
59 1 4
59 2 2
59 3 1
59 6 4
59 7 5
59 8 5
59 9 41
59 10 1
59 12 1
59 13 1
59 16 2
59 17 2
59 18 4
59 19 1
59 21 4
59 27 1
59 28 2
59 29 1
59 30 1
59 34 1
59 35 1
59 36 3
59 39 2
59 42 4
59 47 2
59 56 1
60 1 3
60 2 2
60 3 2
60 5 1
60 7 2
60 12 4
60 15 2
60 17 4
60 18 1
60 19 11
60 21 2
60 23 2
60 24 1
60 25 3
60 28 2
60 30 1
60 31 2
60 33 1
60 34 2
60 37 3
60 39 8
60 42 2
60 51 2
60 55 4
60 59 1
61 1 1
61 3 2
61 5 1
61 6 1
61 8 3
61 10 1
61 11 1
61 12 3
61 15 1
61 16 3
61 17 1
61 19 1
61 21 3
61 23 1
61 27 1
61 29 1
61 31 1
61 32 4
61 33 2
61 35 3
61 38 1
61 41 1
61 51 2
61 55 2
62 1 5
62 2 2
62 3 1
62 4 5
62 5 1
62 8 1
62 10 3
62 11 4
62 12 2
62 13 4
62 14 7
62 16 1
62 18 2
62 19 3
62 21 5
62 23 3
62 24 1
62 25 1
62 26 1
62 33 4
62 34 2
62 35 1
62 37 1
62 39 1
62 42 3
62 46 1
62 47 1
62 51 5
62 59 1
63 1 3
63 2 2
63 5 6
63 6 6
63 7 1
63 8 2
63 9 7
63 10 1
63 12 1
63 13 4
63 15 1
63 16 1
63 17 2
63 18 4
63 19 3
63 21 2
63 22 1
63 25 1
63 26 2
63 27 1
63 28 9
63 29 5
63 30 1
63 31 1
63 32 1
63 33 1
63 36 8
63 37 2
63 45 1
64 1 7
64 2 1
64 3 3
64 4 4
64 5 7
64 7 2
64 8 12
64 10 4
64 11 3
64 12 1
64 14 1
64 15 1
64 18 1
64 19 5
64 21 5
64 22 3
64 23 5
64 24 1
64 25 9
64 26 10
64 28 1
64 30 1
64 31 19
64 32 1
64 33 3
64 35 1
64 37 7
64 39 1
64 42 2
64 44 4
64 48 2
64 51 6
64 53 1
64 55 1
65 1 2
65 2 2
65 3 5
65 4 2
65 5 2
65 8 2
65 9 2
65 12 3
65 13 1
65 15 1
65 19 1
65 21 1
65 24 4
65 26 2
65 27 1
65 31 1
65 33 3
65 34 1
65 35 2
65 51 3
65 57 1
66 1 1
66 2 2
66 9 1
66 11 1
66 14 1
66 42 1
66 51 1
67 7 1
67 21 1
67 27 2
68 2 1
68 3 2
68 5 1
68 8 6
68 11 2
68 13 2
68 14 3
68 15 1
68 18 2
68 19 2
68 21 1
68 22 1
68 24 1
68 25 1
68 28 4
68 30 1
68 31 1
68 32 2
68 33 4
68 34 1
68 42 1
68 44 2
68 58 1
69 1 3
69 4 1
69 5 1
69 7 1
69 8 2
69 10 1
69 11 2
69 15 2
69 16 1
69 17 4
69 18 1
69 19 1
69 22 1
69 27 1
69 28 1
69 30 1
69 33 1
69 34 1
69 37 4
69 42 1
69 47 1
69 51 4
69 55 2
70 1 2
70 5 7
70 6 1
70 8 4
70 12 2
70 13 1
70 15 5
70 16 2
70 17 1
70 18 1
70 19 6
70 21 1
70 26 2
70 27 1
70 28 4
70 35 2
70 39 1
70 47 3
70 55 2
71 1 2
71 2 1
71 5 2
71 7 1
71 8 2
71 21 1
71 22 2
71 27 1
71 28 5
71 32 1
72 1 1
72 2 4
72 4 4
72 5 2
72 6 2
72 8 5
72 9 1
72 11 6
72 13 1
72 14 2
72 19 2
72 21 1
72 25 1
72 30 4
72 32 3
72 33 6
72 34 1
72 35 3
72 37 1
72 38 1
72 39 2
72 42 2
72 51 9
73 19 2
74 1 1
74 2 1
74 3 2
74 4 2
74 5 4
74 6 1
74 7 1
74 8 2
74 9 2
74 10 3
74 11 2
74 12 4
74 13 3
74 14 2
74 15 2
74 16 1
74 17 11
74 18 2
74 19 4
74 22 8
74 23 2
74 24 2
74 25 5
74 26 3
74 28 3
74 29 2
74 31 12
74 32 3
74 33 2
74 42 3
74 46 1
74 47 1
74 51 9
74 55 2
74 56 1
75 1 2
75 2 1
75 4 5
75 5 5
75 6 1
75 8 3
75 13 2
75 14 7
75 15 1
75 18 1
75 19 4
75 23 2
75 25 1
75 26 4
75 29 1
75 30 3
75 31 1
75 32 8
75 34 4
75 35 3
75 37 3
75 39 5
75 42 2
75 51 2
76 2 2
76 3 1
76 5 4
76 6 3
76 8 2
76 12 2
76 13 1
76 15 1
76 16 1
76 18 3
76 19 1
76 21 1
76 22 3
76 25 2
76 26 4
76 28 4
76 32 1
76 33 4
76 34 2
76 35 3
76 36 1
76 38 4
76 42 3
76 51 1
76 55 2
76 58 1
77 1 2
77 7 1
77 9 1
77 16 1
77 18 1
77 19 2
77 21 1
77 22 2
77 23 4
77 25 5
77 28 2
77 29 5
77 31 1
77 33 2
77 37 2
77 38 1
77 39 4
77 43 1
77 47 1
77 51 2
77 59 1
78 1 4
78 2 2
78 5 5
78 6 3
78 7 1
78 8 4
78 9 31
78 10 3
78 12 3
78 13 2
78 15 2
78 16 5
78 17 3
78 18 7
78 19 1
78 21 2
78 27 4
78 28 11
78 29 3
78 30 2
78 32 1
78 36 8
78 38 1
78 42 2
78 55 3
79 1 3
79 2 1
79 5 1
79 6 2
79 8 4
79 9 6
79 10 1
79 12 1
79 15 2
79 16 5
79 17 1
79 18 2
79 19 1
79 25 4
79 26 2
79 27 4
79 28 3
79 29 18
79 30 1
79 34 1
79 35 1
79 36 10
79 38 3
80 2 2
80 6 1
80 8 2
80 9 1
80 10 9
80 15 2
80 16 1
80 18 2
80 19 2
80 26 2
80 27 5
80 29 1
80 30 1
80 33 2
80 34 2
80 36 2
80 39 3
80 42 1
80 47 2
80 48 1
80 59 2
81 1 2
81 3 1
81 4 8
81 5 1
81 6 2
81 7 2
81 8 10
81 9 15
81 11 1
81 12 3
81 13 2
81 16 6
81 17 1
81 18 2
81 19 2
81 22 3
81 23 2
81 24 1
81 25 6
81 26 5
81 27 1
81 28 7
81 29 3
81 30 4
81 31 3
81 32 4
81 33 4
81 34 1
81 35 2
81 36 12
81 39 1
81 42 1
81 44 5
81 47 2
81 48 1
81 51 2
81 55 1
81 56 2
82 1 3
82 3 1
82 5 2
82 6 1
82 7 2
82 8 1
82 9 2
82 10 2
82 11 1
82 13 1
82 15 1
82 16 6
82 18 1
82 19 1
82 23 2
82 26 3
82 27 7
82 28 15
82 29 1
82 31 1
82 32 2
82 35 4
82 36 21
82 38 3
82 42 2
82 47 1
82 51 3
82 55 5
82 56 1
83 7 1
83 8 1
83 13 1
83 18 1
83 21 1
83 22 4
83 26 1
83 28 4
83 32 1
83 33 1
83 38 1
83 42 1
84 1 1
84 2 4
84 5 6
84 6 2
84 7 4
84 8 1
84 10 2
84 12 5
84 13 2
84 15 3
84 17 1
84 18 1
84 22 14
84 23 2
84 25 2
84 26 1
84 27 1
84 30 1
84 33 9
84 35 4
84 38 2
84 42 4
84 47 3
84 50 1
84 55 3
85 1 5
85 2 1
85 3 1
85 4 2
85 5 3
85 6 1
85 7 2
85 8 11
85 9 1
85 10 3
85 12 1
85 14 5
85 15 2
85 16 1
85 17 2
85 19 4
85 21 4
85 23 3
85 24 1
85 29 4
85 32 2
85 33 5
85 34 3
85 38 5
85 39 6
85 41 3
85 42 2
85 54 1
85 55 3
86 1 4
86 2 1
86 5 2
86 8 3
86 11 2
86 12 3
86 15 1
86 18 1
86 42 3
86 51 1
86 55 1
87 10 1
87 11 3
87 19 2
87 51 1
88 1 7
88 2 2
88 3 1
88 4 5
88 5 1
88 6 3
88 7 1
88 8 11
88 9 1
88 10 1
88 11 2
88 12 6
88 13 7
88 14 8
88 15 3
88 17 4
88 18 3
88 19 3
88 21 1
88 22 1
88 23 4
88 24 4
88 25 1
88 26 2
88 28 9
88 30 1
88 32 2
88 33 3
88 35 1
88 37 1
88 39 2
88 41 1
88 42 3
88 44 3
88 51 3
88 54 1
88 55 3
89 3 3
89 4 3
89 7 1
89 8 3
89 11 1
89 12 1
89 13 2
89 14 1
89 15 1
89 17 2
89 18 1
89 19 2
89 21 2
89 22 2
89 24 5
89 27 1
89 28 5
89 30 1
89 33 2
89 34 11
89 39 1
89 41 1
89 44 3
89 48 1
90 1 3
90 5 3
90 6 3
90 8 1
90 9 15
90 10 2
90 12 1
90 16 11
90 17 2
90 18 1
90 19 2
90 28 4
90 29 1
90 32 1
90 33 1
90 36 2
90 55 2
91 2 2
91 4 3
91 5 1
91 6 4
91 7 3
91 8 3
91 9 4
91 10 3
91 12 2
91 16 5
91 21 1
91 22 1
91 24 1
91 26 12
91 29 1
91 35 8
91 36 6
91 38 13
91 44 1
91 55 3
91 56 1
92 1 1
92 2 1
92 8 1
92 11 2
92 13 1
92 18 1
92 51 3
93 2 1
93 5 3
93 9 5
93 12 1
93 21 1
93 26 5
93 27 1
93 29 1
93 30 1
93 32 1
93 35 4
93 36 12
94 1 9
94 2 2
94 5 2
94 6 2
94 7 4
94 8 7
94 9 10
94 10 2
94 12 2
94 15 1
94 16 6
94 17 5
94 18 5
94 21 1
94 26 2
94 28 1
94 29 13
94 32 2
94 36 1
94 42 4
94 47 1
94 55 2
95 7 3
96 9 1
96 37 1
97 8 1
97 19 1
97 22 2
97 27 1
97 32 3
97 35 1
97 37 1
97 39 1
97 55 1
98 1 1
98 5 1
98 8 1
98 9 3
98 14 1
98 15 1
98 17 3
98 19 3
98 26 1
98 28 1
98 32 2
98 33 1
98 46 1
98 47 2
98 55 1
99 5 4
99 9 5
99 13 1
99 16 1
99 17 1
99 19 1
99 22 1
99 24 3
99 25 2
99 28 1
99 29 1
99 36 3
99 37 1
99 38 1
99 39 1
99 56 5
99 57 1
100 1 3
100 2 4
100 3 3
100 4 2
100 5 6
100 6 1
100 8 5
100 9 1
100 10 1
100 12 7
100 13 4
100 14 6
100 15 4
100 16 2
100 17 1
100 18 1
100 19 10
100 21 10
100 22 1
100 23 4
100 24 2
100 25 4
100 26 1
100 27 1
100 30 3
100 31 12
100 32 8
100 33 3
100 34 2
100 35 3
100 37 8
100 38 1
100 39 7
100 41 1
100 42 1
100 51 7
100 54 1
100 55 7
100 59 1
101 1 2
101 3 1
101 5 6
101 8 6
101 10 1
101 12 1
101 15 1
101 16 8
101 18 2
101 19 2
101 21 1
101 23 1
101 25 3
101 26 3
101 27 2
101 28 2
101 31 3
101 35 1
101 36 15
101 37 2
101 38 1
101 42 2
101 51 1
101 55 1
101 56 2
102 1 3
102 5 6
102 6 2
102 8 4
102 9 3
102 10 2
102 12 3
102 13 1
102 16 6
102 18 3
102 19 2
102 21 1
102 22 1
102 25 2
102 26 1
102 27 7
102 28 3
102 29 2
102 32 2
102 33 1
102 35 1
102 36 4
102 38 2
102 42 1
102 43 1
102 47 4
102 55 1
103 1 5
103 2 4
103 4 6
103 5 3
103 6 1
103 7 1
103 8 6
103 10 3
103 11 3
103 12 1
103 13 3
103 14 7
103 15 4
103 17 4
103 18 1
103 19 10
103 21 4
103 22 2
103 24 4
103 25 3
103 27 3
103 31 5
103 32 3
103 33 11
103 34 9
103 35 2
103 37 3
103 38 2
103 39 9
103 41 1
103 42 3
103 47 1
103 51 5
104 1 11
104 2 8
104 3 8
104 4 3
104 5 4
104 6 4
104 7 3
104 8 16
104 10 6
104 11 12
104 12 5
104 13 9
104 14 5
104 15 3
104 16 2
104 17 9
104 18 6
104 19 21
104 21 7
104 22 4
104 23 14
104 24 2
104 25 3
104 27 5
104 28 6
104 29 1
104 30 7
104 31 7
104 32 2
104 33 5
104 34 5
104 35 5
104 37 13
104 38 1
104 39 14
104 42 6
104 44 3
104 46 1
104 47 1
104 51 19
104 55 9
105 1 9
105 2 5
105 3 2
105 4 2
105 5 6
105 6 1
105 7 1
105 8 1
105 10 2
105 11 5
105 12 2
105 13 1
105 14 1
105 15 1
105 17 6
105 19 7
105 21 1
105 23 3
105 25 4
105 26 3
105 27 3
105 30 3
105 31 2
105 32 1
105 33 1
105 34 1
105 35 2
105 37 2
105 39 4
105 41 1
105 42 1
105 47 1
105 51 4
106 2 3
106 3 1
106 5 3
106 9 6
106 10 1
106 15 1
106 16 4
106 17 1
106 18 4
106 34 1
106 36 2
106 42 2
106 55 1
107 1 1
107 5 7
107 6 1
107 7 1
107 8 1
107 10 1
107 11 1
107 12 3
107 13 1
107 14 1
107 15 1
107 17 4
107 19 5
107 21 2
107 22 1
107 23 4
107 25 4
107 33 4
107 34 1
107 35 2
107 37 3
107 38 1
107 39 7
107 42 3
107 51 1
107 59 1
108 1 10
108 2 3
108 3 9
108 4 8
108 5 5
108 6 2
108 7 2
108 8 17
108 10 5
108 11 5
108 12 3
108 13 2
108 14 2
108 15 3
108 17 10
108 18 3
108 19 10
108 21 1
108 22 3
108 23 12
108 24 8
108 25 2
108 26 1
108 27 4
108 28 6
108 30 3
108 31 2
108 32 2
108 33 2
108 34 5
108 35 5
108 37 6
108 38 1
108 42 3
108 44 1
108 47 2
108 48 1
108 51 15
108 55 5
108 57 1
109 9 1
109 12 1
109 16 1
109 19 1
109 31 1
110 1 4
110 2 1
110 5 6
110 6 3
110 7 3
110 8 1
110 9 7
110 10 4
110 11 1
110 13 2
110 15 2
110 16 11
110 17 3
110 18 3
110 22 4
110 26 4
110 27 11
110 29 7
110 34 2
110 35 3
110 36 9
110 39 3
110 42 1
110 47 4
110 55 2
110 56 2
111 1 1
111 2 1
111 6 1
111 7 1
111 8 2
111 12 4
111 15 1
111 16 6
111 19 3
111 26 1
111 27 2
111 28 1
111 29 7
111 30 1
111 33 2
111 35 1
111 36 13
111 39 3
112 2 2
112 3 1
112 5 3
112 7 1
112 8 1
112 13 1
112 15 2
112 16 1
112 18 1
112 19 1
112 34 1
113 2 1
113 5 2
113 6 2
113 8 5
113 9 5
113 10 1
113 15 1
113 16 3
113 17 4
113 19 3
113 21 5
113 25 1
113 26 3
113 27 5
113 28 13
113 29 11
113 30 2
113 31 3
113 33 3
113 34 1
113 35 2
113 36 22
113 38 1
113 41 1
113 42 2
113 48 1
113 55 2
113 56 1
114 1 5
114 2 2
114 7 1
114 8 2
114 9 16
114 10 1
114 15 1
114 16 5
114 17 1
114 18 4
114 19 2
114 22 1
114 25 2
114 26 3
114 27 12
114 28 2
114 35 2
114 36 10
114 37 1
114 38 4
114 42 1
114 47 1
114 50 1
114 55 1
114 56 2
115 1 3
115 2 3
115 3 2
115 4 2
115 5 1
115 7 2
115 8 2
115 10 1
115 11 5
115 14 2
115 15 1
115 17 1
115 19 7
115 21 6
115 22 1
115 23 2
115 24 6
115 28 1
115 30 4
115 31 1
115 32 1
115 33 2
115 34 1
115 39 1
115 42 1
115 51 5
116 1 1
116 2 1
116 13 1
116 16 1
116 29 2
117 1 3
117 2 4
117 3 3
117 5 9
117 6 1
117 7 7
117 8 4
117 10 1
117 11 6
117 12 2
117 13 4
117 14 2
117 15 1
117 16 1
117 18 2
117 19 12
117 21 1
117 23 1
117 25 8
117 26 1
117 28 1
117 32 3
117 33 5
117 34 1
117 35 3
117 37 3
117 38 1
117 39 2
117 42 2
117 45 1
117 47 3
117 51 8
117 55 8
118 1 7
118 2 2
118 3 6
118 4 3
118 5 2
118 6 4
118 8 10
118 10 2
118 12 1
118 13 3
118 14 7
118 15 2
118 16 2
118 17 3
118 18 1
118 19 13
118 21 4
118 22 6
118 23 6
118 25 4
118 26 2
118 28 7
118 30 2
118 31 3
118 32 3
118 33 2
118 34 2
118 35 3
118 37 10
118 38 1
118 39 7
118 43 1
118 44 2
118 47 1
118 51 5
118 55 1
118 57 1
118 59 1
119 1 9
119 2 2
119 3 3
119 4 6
119 5 2
119 6 3
119 7 3
119 8 10
119 10 3
119 11 5
119 12 9
119 13 10
119 14 1
119 15 9
119 17 6
119 18 2
119 19 8
119 21 1
119 22 2
119 23 1
119 24 4
119 26 4
119 27 9
119 31 1
119 32 2
119 33 4
119 34 2
119 35 7
119 37 7
119 38 4
119 39 10
119 41 2
119 42 9
119 47 5
119 51 7
119 55 8
119 57 1
119 59 2
120 5 1
120 6 2
120 9 1
120 10 1
120 13 1
120 16 6
120 17 1
120 18 2
120 22 1
120 23 1
120 25 1
120 26 3
120 27 2
120 28 1
120 29 1
120 36 1
120 37 1
120 38 1
120 55 1
120 56 1
121 5 1
121 6 1
121 8 1
121 9 1
121 22 1
121 25 2
121 26 4
121 27 3
121 28 7
121 29 2
121 30 1
121 33 1
121 35 3
121 36 1
121 38 1
121 39 1
121 45 1
121 55 1
121 56 1
121 59 1
122 1 6
122 5 5
122 7 4
122 10 2
122 11 18
122 12 1
122 14 3
122 17 1
122 19 2
122 21 1
122 23 2
122 25 1
122 26 1
122 27 2
122 42 2
122 47 2
122 51 11
122 55 4
123 1 10
123 2 4
123 3 2
123 4 5
123 5 7
123 6 1
123 8 4
123 9 1
123 10 1
123 11 1
123 12 6
123 13 1
123 14 3
123 15 1
123 16 3
123 17 3
123 18 2
123 19 7
123 21 4
123 22 3
123 23 1
123 26 1
123 27 1
123 28 1
123 29 1
123 30 2
123 32 3
123 33 3
123 34 5
123 35 4
123 37 2
123 38 2
123 39 2
123 42 4
123 51 6
123 56 1
123 58 1
124 1 1
124 2 2
124 4 1
124 8 3
124 9 2
124 10 4
124 11 2
124 12 5
124 13 3
124 14 3
124 16 3
124 18 1
124 21 1
124 22 1
124 23 2
124 24 2
124 29 1
124 31 13
124 33 3
124 34 1
124 35 1
124 37 1
124 38 2
124 44 1
124 51 5
124 55 1
125 5 1
125 13 1
125 16 2
125 17 1
125 18 1
125 19 1
125 21 1
125 22 3
125 23 2
125 25 1
125 30 3
125 33 8
125 35 2
125 37 1
125 38 1
125 39 1
126 3 2
126 5 2
126 6 2
126 7 1
126 8 1
126 9 2
126 10 8
126 12 3
126 13 1
126 15 1
126 16 1
126 18 4
126 19 2
126 23 1
126 26 1
126 27 4
126 28 3
126 29 1
126 33 1
126 37 3
126 38 4
126 55 1
127 1 3
127 3 1
127 4 1
127 5 1
127 7 1
127 11 1
127 12 3
127 13 1
127 14 2
127 15 1
127 19 3
127 21 3
127 22 2
127 23 2
127 24 4
127 25 1
127 27 1
127 28 1
127 29 1
127 31 7
127 32 2
127 33 3
127 37 1
127 42 1
127 51 3
128 1 13
128 2 3
128 3 4
128 4 1
128 5 3
128 6 1
128 7 1
128 8 7
128 10 5
128 11 1
128 12 4
128 13 7
128 14 4
128 15 3
128 16 1
128 17 6
128 18 2
128 19 6
128 23 2
128 25 5
128 26 1
128 27 2
128 28 2
128 30 1
128 33 2
128 34 11
128 37 8
128 39 8
128 42 3
128 51 3
128 55 1
128 59 1
129 2 2
129 5 5
129 8 3
129 10 1
129 16 7
129 17 1
129 18 4
129 19 1
129 25 2
129 26 3
129 27 2
129 28 2
129 29 1
129 30 2
129 32 1
129 34 11
129 36 9
129 37 3
129 46 1
129 55 1
129 56 1
130 22 1
130 25 1
130 34 1
130 36 1
130 39 1
130 46 1
131 1 1
131 9 1
131 12 1
131 15 1
131 22 2
131 23 2
131 25 3
131 26 1
131 27 1
131 30 1
131 31 3
131 33 2
131 34 1
131 39 3
131 41 1
131 42 3
131 55 1
131 59 1
132 1 1
132 3 4
132 5 9
132 6 1
132 7 1
132 11 2
132 12 1
132 13 2
132 14 1
132 15 1
132 19 4
132 21 2
132 23 2
132 27 3
132 31 1
132 32 1
132 33 4
132 35 4
132 37 1
132 41 1
132 42 3
132 51 2
132 56 1
132 59 1
133 1 2
133 5 5
133 6 2
133 8 1
133 9 5
133 11 1
133 12 1
133 15 1
133 16 3
133 17 1
133 18 2
133 19 2
133 21 1
133 25 1
133 26 2
133 27 11
133 28 2
133 29 1
133 30 1
133 33 2
133 36 3
133 37 2
133 38 3
133 45 1
133 47 1
133 55 2
133 57 1
134 1 3
134 2 1
134 3 3
134 4 5
134 6 2
134 8 7
134 11 2
134 12 1
134 13 1
134 14 1
134 15 2
134 16 2
134 17 5
134 18 1
134 19 1
134 21 2
134 22 1
134 31 1
134 33 2
134 34 2
134 35 1
134 39 4
134 42 3
134 44 1
134 55 2
135 8 3
135 9 14
135 17 1
135 21 1
135 25 2
135 26 4
135 27 8
135 28 3
135 29 11
135 30 3
135 34 1
135 36 1
135 38 1
135 39 1
135 42 1
135 47 5
135 56 1
136 1 2
136 2 2
136 5 2
136 7 3
136 13 1
136 15 2
136 18 1
136 19 2
136 42 3
136 47 1
136 51 1
136 55 1
137 1 1
137 4 1
137 7 1
137 8 1
137 11 1
137 13 2
137 14 1
137 18 1
137 19 5
137 21 2
137 22 2
137 24 3
137 25 1
137 27 2
137 30 2
137 32 1
137 33 1
137 34 1
137 35 1
137 38 1
137 44 1
138 1 1
138 2 1
138 11 1
138 12 1
138 18 1
139 1 5
139 2 5
139 3 2
139 4 1
139 5 11
139 6 2
139 8 2
139 10 6
139 11 7
139 12 15
139 13 4
139 14 5
139 15 3
139 17 14
139 18 2
139 19 13
139 21 4
139 22 8
139 23 23
139 24 4
139 25 4
139 26 7
139 27 4
139 28 2
139 31 3
139 32 11
139 33 21
139 34 1
139 35 7
139 37 5
139 38 3
139 39 8
139 42 3
139 43 1
139 44 2
139 46 1
139 47 1
139 51 10
139 52 1
139 53 1
139 55 3
